************************************************************************
file with basedata            : mm47_.bas
initial value random generator: 2114390120
************************************************************************
projects                      :  1
jobs (incl. supersource/sink ):  12
horizon                       :  77
RESOURCES
  - renewable                 :  2   R
  - nonrenewable              :  2   N
  - doubly constrained        :  0   D
************************************************************************
PROJECT INFORMATION:
pronr.  #jobs rel.date duedate tardcost  MPM-Time
    1     10      0       14        8       14
************************************************************************
PRECEDENCE RELATIONS:
jobnr.    #modes  #successors   successors
   0        1          3           1   2   3
   1        3          2           8   9
   2        3          3           4   5   6
   3        3          1           7
   4        3          2           8  10
   5        3          1          10
   6        3          2           7  10
   7        3          1           8
   8        3          1          11
   9        3          1          11
  10        3          1          11
  11        1          0        
************************************************************************
REQUESTS/DURATIONS:
jobnr. mode duration  R 1  R 2  R 3  R 4  E(W 1)  E(W 2)
------------------------------------------------------------------------
  0      1     0       0    0    0    0     0       0
  1      1     1       7    7    9    7    14      16
  2      1     3       6    6    8    5    36      39
  3      1     4       4    5    8    7    36      60
  4      1     7       8    7    2    4    105      42
  5      1     2       7    8   10    8    30      36
  6      1     1       9    5    5    7    14      12
  7      1     6       8    8    3    6    96      54
  8      1     2       7    7    5   10    28      30
  9      1     6       5    4    9    2    54      66
 10      1     4       1    2    6    6    16      48
 11      1     0       0    0    0    0     0       0
************************************************************************
RESOURCEAVAILABILITIES:
  R 1  R 2
   39   114
************************************************************************
RESOURCE LIMITS:
jobnr.  l(R 1)  u(R 1)  l(R 2)  u(R 2)
------------------------------------------------------------------------
  0        0       0       0       0
  1        8      14       9      16
  2        6      12       7      13
  3        5       9       8      15
  4        8      15       3       6
  5        8      15       9      18
  6        8      14       7      12
  7        8      16       5       9
  8        8      14       8      15
  9        5       9       6      11
 10        2       4       6      12
 11        0       0       0       0
************************************************************************
SCENARIOS:
------------------------------------------------------------------------
RESOURCE k = 1
s = 1: (0, 13, 27, 50, 94, 41, 14, 83, 23, 56, 10, 0)
s = 2: (0, 16, 49, 27, 152, 53, 9, 124, 23, 55, 25, 0)
s = 3: (0, 9, 57, 44, 65, 32, 9, 75, 39, 73, 13, 0)
s = 4: (0, 15, 37, 42, 150, 23, 23, 75, 43, 37, 16, 0)
s = 5: (0, 13, 37, 36, 107, 25, 9, 114, 28, 66, 15, 0)
s = 6: (0, 18, 36, 36, 72, 27, 9, 60, 33, 35, 18, 0)
s = 7: (0, 16, 33, 26, 128, 42, 14, 100, 25, 57, 16, 0)
s = 8: (0, 12, 33, 34, 88, 36, 11, 81, 36, 30, 19, 0)
s = 9: (0, 16, 26, 27, 142, 27, 18, 94, 26, 64, 14, 0)
s = 10: (0, 23, 44, 45, 124, 37, 10, 55, 37, 34, 10, 0)
s = 11: (0, 14, 30, 28, 131, 22, 10, 106, 17, 29, 13, 0)
s = 12: (0, 20, 31, 24, 128, 22, 13, 82, 27, 68, 12, 0)
s = 13: (0, 15, 35, 30, 115, 25, 16, 117, 49, 45, 23, 0)
s = 14: (0, 14, 38, 34, 78, 39, 11, 65, 36, 43, 18, 0)
s = 15: (0, 13, 39, 42, 102, 31, 14, 84, 24, 61, 17, 0)
s = 16: (0, 11, 22, 35, 99, 27, 15, 81, 20, 89, 16, 0)
s = 17: (0, 13, 27, 25, 71, 35, 23, 78, 23, 60, 12, 0)
s = 18: (0, 19, 42, 40, 105, 27, 8, 107, 34, 82, 11, 0)
s = 19: (0, 10, 32, 29, 139, 46, 9, 149, 34, 76, 12, 0)
s = 20: (0, 14, 32, 43, 99, 32, 10, 93, 20, 36, 17, 0)
s = 21: (0, 29, 34, 32, 126, 32, 14, 125, 41, 57, 14, 0)
s = 22: (0, 13, 21, 49, 94, 24, 9, 60, 38, 49, 12, 0)
s = 23: (0, 13, 28, 49, 84, 22, 14, 108, 22, 67, 10, 0)
s = 24: (0, 10, 32, 36, 85, 55, 14, 54, 18, 33, 14, 0)
s = 25: (0, 12, 36, 34, 105, 38, 13, 86, 23, 72, 12, 0)
s = 26: (0, 18, 31, 48, 108, 22, 15, 95, 30, 33, 20, 0)
s = 27: (0, 9, 28, 39, 99, 40, 11, 125, 36, 59, 17, 0)
s = 28: (0, 15, 48, 48, 60, 25, 12, 99, 27, 44, 21, 0)
s = 29: (0, 15, 35, 23, 108, 24, 18, 62, 18, 76, 10, 0)
s = 30: (0, 10, 42, 36, 108, 29, 8, 133, 24, 65, 20, 0)
s = 31: (0, 9, 34, 32, 71, 36, 14, 116, 25, 50, 14, 0)
s = 32: (0, 18, 27, 56, 71, 24, 11, 98, 28, 36, 19, 0)
s = 33: (0, 19, 47, 23, 84, 20, 9, 115, 30, 73, 20, 0)
s = 34: (0, 19, 26, 51, 108, 43, 15, 77, 34, 69, 17, 0)
s = 35: (0, 21, 20, 37, 128, 36, 10, 99, 52, 55, 17, 0)
s = 36: (0, 11, 35, 37, 118, 35, 12, 80, 36, 81, 12, 0)
s = 37: (0, 17, 39, 35, 113, 26, 20, 87, 22, 70, 27, 0)
s = 38: (0, 9, 35, 58, 89, 29, 17, 60, 38, 34, 15, 0)
s = 39: (0, 16, 29, 38, 177, 25, 10, 112, 39, 43, 15, 0)
s = 40: (0, 11, 39, 30, 73, 30, 19, 124, 33, 62, 12, 0)
s = 41: (0, 22, 40, 41, 100, 25, 16, 80, 19, 69, 17, 0)
s = 42: (0, 9, 32, 32, 73, 32, 10, 113, 34, 47, 11, 0)
s = 43: (0, 12, 33, 21, 104, 20, 8, 75, 28, 43, 10, 0)
s = 44: (0, 12, 46, 38, 105, 20, 11, 99, 30, 40, 15, 0)
s = 45: (0, 14, 40, 35, 123, 25, 18, 57, 15, 70, 13, 0)
s = 46: (0, 14, 29, 54, 85, 24, 9, 78, 28, 70, 21, 0)
s = 47: (0, 14, 32, 43, 152, 18, 9, 116, 29, 53, 15, 0)
s = 48: (0, 9, 33, 25, 77, 43, 10, 85, 24, 55, 19, 0)
s = 49: (0, 15, 30, 37, 190, 31, 21, 60, 43, 49, 22, 0)
s = 50: (0, 18, 44, 31, 87, 35, 10, 81, 33, 54, 16, 0)
s = 51: (0, 18, 41, 41, 144, 28, 21, 95, 21, 51, 18, 0)
s = 52: (0, 13, 39, 41, 71, 32, 11, 93, 26, 31, 23, 0)
s = 53: (0, 12, 36, 29, 106, 37, 17, 77, 28, 59, 10, 0)
s = 54: (0, 16, 42, 36, 190, 28, 21, 84, 34, 70, 20, 0)
s = 55: (0, 14, 41, 28, 61, 28, 10, 128, 24, 31, 14, 0)
s = 56: (0, 14, 28, 63, 137, 19, 13, 96, 21, 45, 20, 0)
s = 57: (0, 14, 40, 63, 126, 27, 18, 62, 21, 30, 20, 0)
s = 58: (0, 13, 36, 34, 71, 27, 16, 75, 29, 48, 19, 0)
s = 59: (0, 17, 29, 32, 109, 20, 14, 124, 35, 43, 20, 0)
s = 60: (0, 17, 61, 24, 64, 32, 14, 119, 19, 36, 30, 0)
s = 61: (0, 14, 33, 34, 130, 34, 10, 95, 45, 65, 13, 0)
s = 62: (0, 10, 31, 46, 109, 30, 12, 155, 37, 52, 19, 0)
s = 63: (0, 15, 43, 22, 75, 42, 16, 143, 28, 67, 18, 0)
s = 64: (0, 11, 37, 42, 68, 28, 17, 175, 31, 40, 23, 0)
s = 65: (0, 20, 44, 36, 139, 41, 16, 82, 36, 63, 17, 0)
s = 66: (0, 12, 25, 25, 77, 35, 9, 62, 33, 46, 13, 0)
s = 67: (0, 8, 30, 35, 73, 23, 14, 114, 31, 40, 11, 0)
s = 68: (0, 14, 39, 37, 96, 16, 12, 76, 28, 68, 14, 0)
s = 69: (0, 28, 22, 27, 116, 34, 12, 62, 34, 42, 10, 0)
s = 70: (0, 12, 29, 27, 83, 22, 22, 112, 27, 36, 19, 0)
s = 71: (0, 16, 36, 43, 120, 22, 17, 146, 24, 62, 19, 0)
s = 72: (0, 14, 25, 30, 74, 33, 15, 84, 47, 36, 12, 0)
s = 73: (0, 19, 46, 26, 63, 43, 15, 83, 18, 43, 14, 0)
s = 74: (0, 14, 30, 43, 74, 44, 21, 79, 31, 37, 24, 0)
s = 75: (0, 12, 22, 26, 76, 27, 16, 65, 36, 64, 21, 0)
s = 76: (0, 10, 42, 24, 149, 35, 16, 155, 33, 35, 16, 0)
s = 77: (0, 16, 36, 39, 98, 30, 15, 97, 34, 60, 18, 0)
s = 78: (0, 12, 38, 38, 105, 27, 19, 116, 43, 40, 17, 0)
s = 79: (0, 23, 48, 42, 76, 24, 15, 163, 20, 48, 35, 0)
s = 80: (0, 9, 32, 28, 90, 25, 11, 58, 16, 52, 12, 0)
s = 81: (0, 16, 30, 37, 75, 26, 15, 103, 37, 55, 10, 0)
s = 82: (0, 10, 30, 28, 79, 32, 10, 105, 36, 68, 22, 0)
s = 83: (0, 14, 47, 39, 104, 36, 11, 89, 39, 50, 16, 0)
s = 84: (0, 11, 38, 39, 116, 30, 18, 61, 35, 53, 24, 0)
s = 85: (0, 9, 29, 35, 111, 25, 15, 131, 36, 70, 18, 0)
s = 86: (0, 16, 41, 42, 93, 25, 22, 60, 19, 59, 17, 0)
s = 87: (0, 10, 39, 28, 130, 42, 15, 83, 24, 71, 12, 0)
s = 88: (0, 10, 23, 36, 95, 28, 19, 148, 47, 44, 10, 0)
s = 89: (0, 10, 25, 37, 107, 17, 14, 106, 27, 69, 21, 0)
s = 90: (0, 12, 43, 28, 109, 22, 18, 82, 34, 49, 9, 0)
s = 91: (0, 17, 50, 31, 74, 25, 10, 113, 34, 61, 10, 0)
s = 92: (0, 13, 36, 42, 75, 33, 12, 96, 20, 45, 15, 0)
s = 93: (0, 20, 21, 28, 154, 34, 19, 55, 31, 37, 11, 0)
s = 94: (0, 15, 36, 50, 100, 40, 23, 109, 21, 50, 22, 0)
s = 95: (0, 14, 44, 50, 86, 47, 14, 83, 24, 52, 18, 0)
s = 96: (0, 19, 44, 36, 57, 18, 10, 77, 35, 43, 18, 0)
s = 97: (0, 11, 42, 32, 66, 30, 16, 89, 25, 68, 21, 0)
s = 98: (0, 19, 32, 29, 118, 31, 17, 95, 32, 39, 10, 0)
s = 99: (0, 22, 34, 26, 103, 47, 9, 114, 28, 52, 31, 0)
s = 100: (0, 13, 38, 42, 152, 36, 24, 63, 42, 38, 19, 0)
s = 101: (0, 16, 39, 44, 110, 23, 18, 105, 21, 71, 14, 0)
s = 102: (0, 17, 54, 59, 125, 26, 13, 74, 35, 58, 15, 0)
s = 103: (0, 15, 35, 29, 114, 32, 12, 67, 26, 52, 13, 0)
s = 104: (0, 13, 24, 40, 75, 20, 16, 71, 26, 56, 20, 0)
s = 105: (0, 12, 38, 31, 71, 32, 11, 85, 34, 50, 12, 0)
s = 106: (0, 13, 41, 25, 162, 35, 10, 93, 18, 79, 13, 0)
s = 107: (0, 15, 57, 22, 133, 30, 22, 51, 43, 52, 15, 0)
s = 108: (0, 8, 37, 29, 125, 36, 13, 111, 17, 33, 14, 0)
s = 109: (0, 14, 36, 58, 75, 50, 11, 170, 23, 60, 22, 0)
s = 110: (0, 13, 25, 28, 57, 20, 17, 88, 32, 54, 17, 0)
s = 111: (0, 12, 31, 29, 86, 33, 11, 69, 18, 29, 14, 0)
s = 112: (0, 20, 48, 22, 101, 23, 19, 98, 32, 57, 16, 0)
s = 113: (0, 14, 25, 36, 85, 37, 11, 93, 41, 59, 25, 0)
s = 114: (0, 11, 29, 37, 72, 27, 16, 72, 25, 59, 22, 0)
s = 115: (0, 17, 29, 32, 94, 23, 18, 106, 22, 55, 17, 0)
s = 116: (0, 17, 29, 26, 77, 22, 13, 119, 46, 52, 28, 0)
s = 117: (0, 19, 32, 23, 62, 33, 15, 85, 17, 61, 19, 0)
s = 118: (0, 16, 27, 43, 94, 48, 12, 127, 28, 67, 16, 0)
s = 119: (0, 21, 37, 28, 107, 44, 18, 95, 34, 58, 22, 0)
s = 120: (0, 11, 27, 29, 117, 25, 15, 127, 28, 66, 13, 0)
s = 121: (0, 9, 49, 48, 92, 43, 21, 88, 28, 32, 14, 0)
s = 122: (0, 8, 32, 39, 175, 27, 21, 173, 35, 85, 12, 0)
s = 123: (0, 11, 54, 32, 109, 28, 16, 69, 32, 56, 20, 0)
s = 124: (0, 13, 44, 25, 74, 43, 11, 122, 21, 49, 15, 0)
s = 125: (0, 10, 23, 46, 109, 31, 20, 85, 19, 60, 12, 0)
s = 126: (0, 18, 23, 31, 75, 23, 13, 99, 18, 41, 14, 0)
s = 127: (0, 15, 48, 28, 85, 25, 8, 74, 40, 59, 26, 0)
s = 128: (0, 12, 46, 47, 141, 28, 16, 122, 23, 68, 18, 0)
s = 129: (0, 9, 46, 57, 101, 42, 16, 93, 47, 61, 19, 0)
s = 130: (0, 18, 32, 32, 78, 40, 11, 75, 22, 57, 12, 0)
s = 131: (0, 16, 34, 58, 61, 21, 9, 95, 22, 51, 21, 0)
s = 132: (0, 18, 27, 25, 128, 29, 16, 76, 36, 64, 23, 0)
s = 133: (0, 13, 59, 26, 96, 32, 13, 98, 20, 44, 29, 0)
s = 134: (0, 15, 37, 39, 87, 42, 18, 123, 38, 72, 19, 0)
s = 135: (0, 17, 26, 34, 70, 29, 14, 72, 24, 50, 23, 0)
s = 136: (0, 13, 25, 25, 118, 46, 17, 151, 30, 68, 27, 0)
s = 137: (0, 14, 29, 30, 74, 32, 8, 53, 27, 54, 25, 0)
s = 138: (0, 15, 32, 28, 151, 45, 9, 85, 24, 57, 15, 0)
s = 139: (0, 17, 39, 31, 107, 35, 10, 84, 17, 58, 14, 0)
s = 140: (0, 17, 44, 48, 127, 33, 14, 77, 30, 58, 15, 0)
s = 141: (0, 17, 27, 47, 88, 35, 15, 164, 20, 70, 13, 0)
s = 142: (0, 11, 54, 39, 79, 30, 16, 82, 21, 37, 11, 0)
s = 143: (0, 14, 21, 43, 98, 37, 23, 61, 17, 60, 19, 0)
s = 144: (0, 8, 32, 44, 70, 25, 10, 52, 32, 73, 24, 0)
s = 145: (0, 11, 62, 42, 131, 33, 14, 68, 33, 43, 11, 0)
s = 146: (0, 15, 34, 21, 181, 30, 18, 80, 26, 60, 16, 0)
s = 147: (0, 16, 35, 45, 176, 32, 9, 66, 26, 51, 14, 0)
s = 148: (0, 11, 25, 45, 116, 20, 14, 132, 21, 70, 15, 0)
s = 149: (0, 11, 63, 35, 131, 41, 13, 105, 20, 74, 20, 0)
s = 150: (0, 23, 35, 24, 174, 17, 9, 107, 36, 57, 11, 0)
s = 151: (0, 21, 31, 24, 90, 33, 15, 147, 19, 70, 9, 0)
s = 152: (0, 16, 22, 36, 73, 23, 12, 92, 36, 53, 14, 0)
s = 153: (0, 14, 24, 26, 73, 41, 16, 82, 22, 58, 16, 0)
s = 154: (0, 9, 46, 52, 79, 32, 15, 75, 38, 43, 15, 0)
s = 155: (0, 15, 23, 65, 109, 30, 12, 74, 19, 64, 19, 0)
s = 156: (0, 11, 34, 39, 95, 18, 13, 72, 45, 72, 11, 0)
s = 157: (0, 13, 25, 26, 97, 22, 10, 67, 19, 52, 9, 0)
s = 158: (0, 25, 51, 24, 121, 33, 14, 71, 30, 41, 14, 0)
s = 159: (0, 27, 46, 37, 104, 22, 20, 54, 21, 44, 23, 0)
s = 160: (0, 13, 30, 42, 87, 22, 14, 172, 38, 37, 14, 0)
s = 161: (0, 18, 38, 20, 69, 32, 11, 81, 29, 43, 16, 0)
s = 162: (0, 12, 43, 27, 139, 45, 13, 152, 19, 58, 17, 0)
s = 163: (0, 12, 31, 21, 134, 30, 17, 148, 21, 42, 21, 0)
s = 164: (0, 12, 34, 30, 83, 36, 10, 77, 36, 65, 17, 0)
s = 165: (0, 16, 32, 39, 125, 27, 12, 148, 42, 59, 15, 0)
s = 166: (0, 10, 45, 35, 63, 38, 11, 115, 28, 66, 14, 0)
s = 167: (0, 17, 49, 52, 62, 21, 13, 130, 25, 33, 22, 0)
s = 168: (0, 16, 42, 30, 126, 24, 17, 58, 34, 57, 10, 0)
s = 169: (0, 16, 59, 30, 124, 33, 25, 54, 19, 55, 13, 0)
s = 170: (0, 15, 35, 40, 96, 24, 19, 151, 28, 51, 10, 0)
s = 171: (0, 16, 32, 59, 99, 31, 9, 105, 28, 50, 19, 0)
s = 172: (0, 12, 43, 34, 85, 20, 14, 108, 28, 43, 21, 0)
s = 173: (0, 15, 56, 36, 109, 18, 15, 74, 24, 59, 11, 0)
s = 174: (0, 20, 38, 39, 86, 35, 11, 90, 34, 38, 10, 0)
s = 175: (0, 16, 38, 37, 104, 43, 15, 89, 34, 42, 19, 0)
s = 176: (0, 10, 40, 37, 76, 27, 15, 110, 29, 90, 9, 0)
s = 177: (0, 15, 37, 28, 171, 30, 16, 82, 31, 53, 13, 0)
s = 178: (0, 16, 44, 50, 110, 20, 13, 51, 23, 52, 18, 0)
s = 179: (0, 17, 31, 44, 136, 45, 14, 73, 21, 43, 19, 0)
s = 180: (0, 16, 30, 48, 96, 21, 9, 125, 35, 49, 20, 0)
s = 181: (0, 10, 22, 43, 96, 23, 15, 133, 43, 39, 21, 0)
s = 182: (0, 12, 53, 47, 144, 38, 18, 118, 17, 68, 18, 0)
s = 183: (0, 16, 29, 31, 149, 28, 13, 81, 22, 41, 26, 0)
s = 184: (0, 14, 43, 28, 134, 25, 14, 144, 24, 32, 13, 0)
s = 185: (0, 15, 25, 47, 78, 21, 19, 122, 38, 51, 21, 0)
s = 186: (0, 15, 27, 35, 143, 31, 10, 80, 28, 47, 13, 0)
s = 187: (0, 15, 23, 23, 76, 24, 11, 128, 42, 56, 19, 0)
s = 188: (0, 15, 38, 52, 67, 38, 13, 89, 39, 53, 11, 0)
s = 189: (0, 17, 34, 26, 96, 45, 13, 61, 18, 34, 12, 0)
s = 190: (0, 21, 31, 27, 87, 35, 12, 132, 49, 71, 14, 0)
s = 191: (0, 15, 45, 22, 85, 36, 16, 70, 22, 58, 19, 0)
s = 192: (0, 15, 44, 25, 86, 27, 13, 107, 17, 68, 13, 0)
s = 193: (0, 13, 57, 29, 111, 25, 20, 96, 34, 47, 16, 0)
s = 194: (0, 18, 31, 53, 114, 34, 9, 74, 36, 50, 12, 0)
s = 195: (0, 9, 34, 31, 89, 24, 15, 81, 47, 66, 17, 0)
s = 196: (0, 11, 39, 39, 132, 38, 19, 86, 27, 49, 14, 0)
s = 197: (0, 10, 24, 39, 72, 34, 21, 120, 31, 52, 14, 0)
s = 198: (0, 10, 26, 42, 92, 30, 15, 80, 28, 46, 11, 0)
s = 199: (0, 11, 42, 45, 88, 30, 13, 107, 25, 76, 16, 0)
s = 200: (0, 19, 39, 42, 71, 18, 12, 62, 29, 92, 16, 0)
------------------------------------------------------------------------
RESOURCE k = 2
s = 1: (0, 15, 29, 83, 38, 49, 12, 47, 24, 68, 28, 0)
s = 2: (0, 18, 53, 45, 61, 64, 8, 70, 25, 67, 75, 0)
s = 3: (0, 10, 61, 73, 26, 39, 8, 42, 42, 90, 37, 0)
s = 4: (0, 17, 40, 69, 60, 28, 19, 42, 46, 46, 46, 0)
s = 5: (0, 14, 40, 60, 43, 30, 8, 64, 30, 81, 43, 0)
s = 6: (0, 21, 39, 59, 29, 33, 8, 34, 36, 43, 53, 0)
s = 7: (0, 18, 35, 43, 52, 50, 12, 57, 27, 69, 46, 0)
s = 8: (0, 14, 35, 57, 35, 43, 9, 46, 38, 36, 56, 0)
s = 9: (0, 18, 28, 45, 57, 33, 16, 53, 28, 78, 41, 0)
s = 10: (0, 26, 48, 74, 50, 44, 8, 31, 40, 42, 29, 0)
s = 11: (0, 15, 32, 46, 53, 26, 8, 60, 18, 36, 38, 0)
s = 12: (0, 23, 34, 39, 52, 27, 11, 46, 28, 83, 36, 0)
s = 13: (0, 17, 38, 49, 46, 30, 14, 66, 52, 55, 68, 0)
s = 14: (0, 16, 41, 57, 32, 46, 10, 37, 38, 52, 54, 0)
s = 15: (0, 14, 42, 70, 41, 37, 12, 48, 25, 75, 51, 0)
s = 16: (0, 12, 24, 59, 40, 33, 13, 46, 21, 109, 47, 0)
s = 17: (0, 15, 29, 42, 29, 42, 20, 44, 25, 73, 34, 0)
s = 18: (0, 21, 45, 67, 42, 32, 7, 61, 36, 100, 31, 0)
s = 19: (0, 11, 34, 47, 56, 55, 8, 84, 36, 93, 35, 0)
s = 20: (0, 16, 35, 72, 40, 38, 9, 52, 22, 44, 50, 0)
s = 21: (0, 33, 36, 53, 51, 39, 12, 70, 44, 69, 40, 0)
s = 22: (0, 15, 22, 82, 38, 29, 8, 34, 41, 60, 35, 0)
s = 23: (0, 15, 30, 82, 34, 26, 12, 61, 23, 82, 30, 0)
s = 24: (0, 11, 34, 60, 34, 65, 12, 31, 19, 40, 42, 0)
s = 25: (0, 14, 38, 56, 42, 45, 12, 49, 25, 88, 35, 0)
s = 26: (0, 20, 34, 79, 44, 26, 13, 53, 32, 41, 60, 0)
s = 27: (0, 11, 30, 64, 40, 48, 10, 70, 39, 72, 51, 0)
s = 28: (0, 18, 51, 79, 24, 29, 10, 56, 29, 54, 62, 0)
s = 29: (0, 17, 38, 38, 44, 28, 15, 35, 20, 93, 28, 0)
s = 30: (0, 12, 45, 59, 43, 35, 7, 75, 25, 79, 60, 0)
s = 31: (0, 10, 36, 54, 29, 43, 12, 66, 27, 60, 42, 0)
s = 32: (0, 21, 29, 93, 29, 28, 9, 55, 30, 44, 55, 0)
s = 33: (0, 22, 50, 38, 34, 24, 8, 65, 32, 89, 58, 0)
s = 34: (0, 22, 28, 84, 44, 51, 13, 44, 36, 85, 49, 0)
s = 35: (0, 23, 22, 61, 51, 43, 9, 56, 55, 67, 49, 0)
s = 36: (0, 13, 38, 62, 47, 42, 10, 45, 38, 98, 34, 0)
s = 37: (0, 19, 42, 58, 46, 31, 18, 49, 24, 86, 79, 0)
s = 38: (0, 11, 38, 97, 36, 35, 14, 34, 41, 42, 43, 0)
s = 39: (0, 18, 32, 62, 71, 30, 9, 63, 42, 53, 45, 0)
s = 40: (0, 12, 42, 50, 30, 36, 16, 70, 36, 76, 36, 0)
s = 41: (0, 25, 44, 68, 40, 30, 13, 45, 20, 84, 50, 0)
s = 42: (0, 10, 35, 52, 29, 39, 9, 64, 37, 57, 33, 0)
s = 43: (0, 13, 35, 34, 42, 23, 7, 43, 30, 52, 28, 0)
s = 44: (0, 14, 50, 64, 42, 24, 9, 56, 32, 48, 45, 0)
s = 45: (0, 16, 43, 58, 50, 30, 16, 32, 16, 85, 37, 0)
s = 46: (0, 16, 31, 90, 34, 28, 8, 44, 30, 86, 63, 0)
s = 47: (0, 16, 34, 72, 61, 22, 8, 65, 32, 65, 45, 0)
s = 48: (0, 10, 36, 41, 31, 52, 9, 48, 26, 67, 56, 0)
s = 49: (0, 18, 32, 62, 76, 37, 18, 34, 46, 60, 66, 0)
s = 50: (0, 21, 48, 51, 35, 42, 8, 46, 36, 66, 46, 0)
s = 51: (0, 20, 44, 69, 58, 33, 18, 54, 22, 62, 53, 0)
s = 52: (0, 15, 43, 69, 29, 38, 9, 53, 28, 37, 67, 0)
s = 53: (0, 14, 39, 48, 43, 44, 15, 44, 30, 72, 28, 0)
s = 54: (0, 18, 45, 60, 76, 33, 18, 47, 37, 86, 58, 0)
s = 55: (0, 15, 44, 46, 25, 34, 9, 72, 25, 38, 40, 0)
s = 56: (0, 16, 30, 105, 55, 23, 11, 54, 22, 54, 58, 0)
s = 57: (0, 16, 44, 105, 51, 32, 15, 35, 22, 36, 59, 0)
s = 58: (0, 14, 39, 57, 29, 32, 14, 43, 31, 58, 56, 0)
s = 59: (0, 20, 32, 54, 44, 24, 12, 70, 38, 53, 60, 0)
s = 60: (0, 20, 66, 39, 26, 38, 12, 67, 21, 44, 88, 0)
s = 61: (0, 16, 36, 56, 52, 41, 9, 54, 48, 79, 39, 0)
s = 62: (0, 11, 34, 77, 44, 35, 10, 87, 39, 63, 55, 0)
s = 63: (0, 17, 47, 36, 30, 50, 14, 81, 30, 82, 54, 0)
s = 64: (0, 13, 41, 70, 28, 34, 14, 99, 33, 49, 67, 0)
s = 65: (0, 23, 48, 60, 56, 49, 14, 46, 38, 77, 49, 0)
s = 66: (0, 14, 27, 42, 31, 42, 8, 35, 35, 57, 37, 0)
s = 67: (0, 10, 33, 57, 29, 27, 12, 65, 33, 49, 31, 0)
s = 68: (0, 16, 42, 61, 39, 19, 10, 43, 30, 82, 41, 0)
s = 69: (0, 31, 23, 44, 47, 40, 10, 35, 36, 51, 28, 0)
s = 70: (0, 13, 32, 45, 34, 26, 19, 63, 29, 44, 56, 0)
s = 71: (0, 18, 39, 71, 48, 26, 15, 82, 26, 75, 57, 0)
s = 72: (0, 16, 27, 49, 30, 40, 13, 48, 50, 44, 34, 0)
s = 73: (0, 21, 50, 43, 25, 51, 13, 47, 19, 52, 42, 0)
s = 74: (0, 16, 32, 71, 30, 52, 18, 45, 34, 45, 71, 0)
s = 75: (0, 14, 24, 44, 31, 32, 13, 37, 38, 79, 61, 0)
s = 76: (0, 12, 46, 40, 60, 42, 13, 88, 35, 43, 46, 0)
s = 77: (0, 18, 39, 64, 39, 36, 13, 55, 36, 73, 52, 0)
s = 78: (0, 13, 41, 64, 42, 32, 16, 66, 46, 49, 50, 0)
s = 79: (0, 26, 52, 70, 31, 28, 13, 92, 21, 59, 103, 0)
s = 80: (0, 10, 35, 46, 36, 30, 9, 33, 17, 63, 36, 0)
s = 81: (0, 19, 32, 61, 30, 31, 13, 58, 39, 67, 29, 0)
s = 82: (0, 11, 33, 46, 32, 39, 9, 59, 38, 83, 66, 0)
s = 83: (0, 16, 51, 65, 42, 43, 10, 50, 41, 61, 48, 0)
s = 84: (0, 13, 41, 65, 47, 36, 16, 35, 37, 64, 71, 0)
s = 85: (0, 10, 31, 57, 45, 30, 13, 74, 39, 85, 52, 0)
s = 86: (0, 18, 44, 69, 37, 30, 19, 34, 20, 72, 49, 0)
s = 87: (0, 11, 42, 46, 52, 50, 13, 47, 26, 86, 34, 0)
s = 88: (0, 12, 25, 60, 38, 33, 17, 83, 51, 54, 29, 0)
s = 89: (0, 11, 27, 61, 43, 20, 12, 60, 29, 84, 63, 0)
s = 90: (0, 14, 46, 46, 44, 26, 16, 46, 36, 60, 26, 0)
s = 91: (0, 20, 54, 51, 30, 30, 9, 64, 37, 75, 29, 0)
s = 92: (0, 15, 39, 69, 30, 39, 11, 54, 21, 54, 45, 0)
s = 93: (0, 23, 23, 46, 62, 41, 16, 31, 33, 45, 33, 0)
s = 94: (0, 17, 39, 83, 40, 47, 20, 62, 22, 61, 65, 0)
s = 95: (0, 16, 48, 84, 35, 56, 12, 47, 26, 63, 52, 0)
s = 96: (0, 22, 48, 59, 23, 21, 9, 44, 38, 52, 54, 0)
s = 97: (0, 13, 45, 53, 27, 36, 13, 50, 27, 83, 62, 0)
s = 98: (0, 21, 35, 48, 47, 37, 15, 54, 34, 48, 28, 0)
s = 99: (0, 25, 36, 43, 41, 56, 8, 64, 30, 64, 91, 0)
s = 100: (0, 15, 42, 69, 61, 43, 20, 36, 45, 47, 57, 0)
s = 101: (0, 18, 42, 74, 44, 28, 16, 59, 23, 87, 40, 0)
s = 102: (0, 19, 58, 98, 50, 31, 11, 42, 37, 70, 43, 0)
s = 103: (0, 17, 38, 47, 46, 38, 10, 38, 28, 63, 39, 0)
s = 104: (0, 14, 26, 67, 30, 24, 14, 40, 28, 68, 60, 0)
s = 105: (0, 13, 41, 52, 29, 39, 9, 48, 37, 61, 35, 0)
s = 106: (0, 15, 45, 41, 65, 42, 8, 53, 19, 96, 38, 0)
s = 107: (0, 17, 62, 37, 54, 36, 19, 29, 46, 64, 45, 0)
s = 108: (0, 9, 41, 48, 50, 43, 12, 62, 19, 40, 41, 0)
s = 109: (0, 16, 39, 97, 30, 59, 10, 96, 24, 73, 64, 0)
s = 110: (0, 15, 27, 47, 23, 24, 14, 50, 34, 66, 51, 0)
s = 111: (0, 13, 33, 48, 35, 40, 10, 39, 19, 36, 42, 0)
s = 112: (0, 23, 52, 36, 41, 27, 16, 55, 35, 70, 47, 0)
s = 113: (0, 16, 27, 60, 34, 44, 9, 53, 44, 72, 75, 0)
s = 114: (0, 12, 31, 62, 29, 32, 14, 41, 27, 72, 66, 0)
s = 115: (0, 20, 31, 54, 38, 27, 15, 60, 23, 67, 50, 0)
s = 116: (0, 19, 31, 43, 31, 26, 12, 67, 49, 64, 84, 0)
s = 117: (0, 21, 34, 38, 25, 40, 13, 48, 18, 74, 57, 0)
s = 118: (0, 18, 29, 72, 38, 57, 10, 72, 30, 82, 47, 0)
s = 119: (0, 24, 40, 47, 43, 53, 16, 53, 37, 70, 64, 0)
s = 120: (0, 13, 30, 47, 47, 30, 13, 72, 30, 81, 39, 0)
s = 121: (0, 10, 53, 79, 37, 52, 18, 50, 30, 39, 40, 0)
s = 122: (0, 9, 35, 65, 70, 33, 18, 98, 37, 104, 36, 0)
s = 123: (0, 13, 58, 52, 44, 33, 13, 39, 35, 68, 58, 0)
s = 124: (0, 15, 48, 42, 30, 52, 9, 69, 23, 60, 45, 0)
s = 125: (0, 12, 25, 76, 44, 37, 17, 48, 21, 73, 35, 0)
s = 126: (0, 20, 25, 51, 30, 27, 11, 56, 19, 50, 41, 0)
s = 127: (0, 17, 52, 47, 34, 29, 7, 42, 43, 72, 76, 0)
s = 128: (0, 13, 50, 78, 57, 33, 14, 69, 25, 83, 54, 0)
s = 129: (0, 11, 50, 95, 41, 51, 14, 53, 51, 74, 56, 0)
s = 130: (0, 21, 35, 53, 32, 48, 9, 42, 23, 70, 35, 0)
s = 131: (0, 18, 37, 96, 25, 25, 8, 54, 24, 62, 61, 0)
s = 132: (0, 20, 29, 42, 51, 34, 13, 43, 38, 78, 68, 0)
s = 133: (0, 15, 64, 44, 39, 38, 11, 55, 22, 53, 85, 0)
s = 134: (0, 17, 40, 64, 35, 50, 15, 70, 41, 88, 56, 0)
s = 135: (0, 19, 28, 56, 28, 34, 12, 41, 26, 61, 67, 0)
s = 136: (0, 15, 27, 42, 47, 55, 15, 85, 32, 83, 81, 0)
s = 137: (0, 16, 31, 50, 30, 39, 7, 30, 28, 66, 74, 0)
s = 138: (0, 17, 34, 46, 61, 54, 8, 48, 26, 69, 45, 0)
s = 139: (0, 19, 42, 51, 43, 42, 8, 47, 18, 71, 41, 0)
s = 140: (0, 19, 47, 80, 51, 39, 12, 44, 32, 70, 45, 0)
s = 141: (0, 20, 29, 78, 35, 41, 13, 93, 21, 86, 37, 0)
s = 142: (0, 12, 58, 64, 32, 36, 14, 47, 22, 45, 32, 0)
s = 143: (0, 16, 22, 72, 39, 44, 19, 35, 18, 74, 56, 0)
s = 144: (0, 9, 35, 72, 28, 30, 9, 29, 34, 89, 70, 0)
s = 145: (0, 13, 67, 70, 53, 39, 12, 39, 36, 53, 32, 0)
s = 146: (0, 17, 37, 35, 73, 36, 15, 45, 28, 74, 46, 0)
s = 147: (0, 19, 38, 75, 71, 38, 7, 37, 28, 63, 41, 0)
s = 148: (0, 13, 27, 75, 47, 24, 12, 74, 22, 85, 44, 0)
s = 149: (0, 12, 69, 57, 53, 49, 11, 59, 21, 90, 58, 0)
s = 150: (0, 26, 38, 39, 70, 21, 8, 60, 39, 70, 32, 0)
s = 151: (0, 23, 33, 39, 36, 39, 13, 83, 20, 86, 27, 0)
s = 152: (0, 18, 23, 60, 30, 27, 10, 52, 38, 65, 41, 0)
s = 153: (0, 16, 26, 43, 29, 50, 14, 46, 24, 71, 46, 0)
s = 154: (0, 11, 50, 86, 32, 38, 13, 43, 41, 52, 45, 0)
s = 155: (0, 17, 25, 108, 44, 36, 11, 42, 20, 78, 55, 0)
s = 156: (0, 12, 37, 64, 38, 21, 11, 41, 48, 88, 33, 0)
s = 157: (0, 15, 27, 44, 39, 26, 8, 38, 20, 64, 25, 0)
s = 158: (0, 28, 55, 39, 49, 40, 12, 40, 32, 50, 42, 0)
s = 159: (0, 31, 50, 61, 42, 26, 17, 31, 22, 54, 69, 0)
s = 160: (0, 15, 33, 69, 35, 27, 12, 97, 40, 45, 41, 0)
s = 161: (0, 21, 41, 34, 28, 38, 9, 46, 31, 52, 48, 0)
s = 162: (0, 13, 46, 45, 56, 54, 11, 86, 20, 70, 50, 0)
s = 163: (0, 14, 34, 35, 54, 36, 15, 83, 22, 52, 61, 0)
s = 164: (0, 14, 37, 50, 34, 43, 9, 43, 39, 80, 49, 0)
s = 165: (0, 18, 35, 64, 50, 32, 10, 83, 45, 72, 45, 0)
s = 166: (0, 12, 49, 58, 26, 46, 9, 65, 30, 81, 42, 0)
s = 167: (0, 20, 53, 87, 25, 25, 11, 74, 26, 40, 66, 0)
s = 168: (0, 18, 45, 49, 51, 29, 15, 33, 37, 69, 28, 0)
s = 169: (0, 18, 64, 50, 50, 40, 22, 31, 21, 67, 38, 0)
s = 170: (0, 17, 38, 66, 39, 28, 16, 85, 30, 62, 29, 0)
s = 171: (0, 19, 35, 97, 40, 37, 8, 59, 30, 60, 55, 0)
s = 172: (0, 14, 46, 56, 34, 24, 12, 61, 30, 52, 63, 0)
s = 173: (0, 17, 61, 60, 44, 22, 13, 42, 25, 72, 32, 0)
s = 174: (0, 23, 42, 65, 35, 42, 9, 51, 37, 47, 30, 0)
s = 175: (0, 19, 41, 62, 42, 51, 13, 50, 36, 51, 55, 0)
s = 176: (0, 11, 43, 61, 31, 32, 13, 62, 31, 110, 26, 0)
s = 177: (0, 17, 40, 47, 69, 35, 14, 46, 33, 64, 39, 0)
s = 178: (0, 18, 48, 83, 44, 24, 11, 29, 25, 63, 54, 0)
s = 179: (0, 19, 33, 72, 55, 54, 12, 41, 23, 52, 57, 0)
s = 180: (0, 19, 33, 79, 39, 25, 8, 71, 38, 60, 58, 0)
s = 181: (0, 12, 24, 72, 39, 27, 13, 75, 46, 48, 61, 0)
s = 182: (0, 14, 57, 78, 58, 45, 15, 67, 18, 83, 53, 0)
s = 183: (0, 18, 31, 51, 60, 34, 11, 46, 24, 50, 76, 0)
s = 184: (0, 16, 46, 47, 54, 30, 12, 81, 26, 39, 37, 0)
s = 185: (0, 17, 27, 78, 32, 26, 17, 69, 41, 62, 63, 0)
s = 186: (0, 17, 30, 57, 58, 37, 9, 45, 30, 57, 38, 0)
s = 187: (0, 17, 25, 39, 31, 29, 9, 72, 45, 69, 56, 0)
s = 188: (0, 17, 41, 86, 27, 45, 12, 50, 42, 65, 33, 0)
s = 189: (0, 19, 36, 43, 39, 53, 11, 35, 19, 42, 35, 0)
s = 190: (0, 24, 34, 45, 35, 41, 10, 74, 53, 87, 42, 0)
s = 191: (0, 17, 49, 36, 34, 43, 14, 39, 24, 71, 55, 0)
s = 192: (0, 17, 48, 41, 35, 33, 12, 61, 19, 83, 37, 0)
s = 193: (0, 15, 61, 48, 45, 30, 17, 54, 37, 57, 46, 0)
s = 194: (0, 21, 33, 87, 46, 40, 8, 42, 38, 60, 36, 0)
s = 195: (0, 10, 37, 52, 36, 28, 13, 46, 51, 80, 50, 0)
s = 196: (0, 13, 43, 64, 53, 45, 16, 49, 29, 59, 42, 0)
s = 197: (0, 12, 26, 64, 29, 41, 18, 68, 34, 63, 40, 0)
s = 198: (0, 11, 28, 69, 37, 35, 13, 45, 30, 56, 33, 0)
s = 199: (0, 12, 46, 75, 36, 35, 11, 61, 26, 93, 47, 0)
s = 200: (0, 21, 43, 69, 29, 22, 11, 35, 31, 112, 46, 0)
************************************************************************
ES/LS-VALUES:
jobnr.   ES(i)    LS(i)
------------------------------------------------------------------------
  0        0        0
  1        0       63
  2        0       49
  3        0       54
  4        5       55
  5        5       64
  6        5       60
  7        7       62
  8       18       73
  9        2       66
 10       17       68
 11       25       77
************************************************************************
BIG-M-VALUES:
M1 = 50, M2 = 279
************************************************************************
